
Welcome to IBM(R) ILOG(R) CPLEX(R) Interactive Optimizer 22.1.1.0
  with Simplex, Mixed Integer & Barrier Optimizers
5725-A06 5725-A29 5724-Y48 5724-Y49 5724-Y54 5724-Y55 5655-Y21
Copyright IBM Corp. 1988, 2022.  All Rights Reserved.

Type 'help' for a list of available commands.
Type 'help' followed by a command name for more
information on commands.

CPLEX> Selected objective sense:  MINIMIZE
Selected objective  name:  00000000
Selected RHS        name:  RHS1
Selected bound      name:  BOUND
Problem 'ee.mps' read.
Read time = 0.02 sec. (3.14 ticks)
CPLEX> New value for time limit in seconds: 7200
CPLEX> New value for parallel optimization mode: -1
CPLEX> New value for default parallel thread count: 40
CPLEX> New value for mixed integer optimality gap tolerance: 1e-13
CPLEX> Version identifier: 22.1.1.0 | 2022-11-28 | 9160aff4d
CPXPARAM_Threads                                 40
CPXPARAM_Parallel                                -1
CPXPARAM_TimeLimit                               7200
CPXPARAM_MIP_Tolerances_MIPGap                   1e-13
Found incumbent of value 0.000000 after 0.00 sec. (0.31 ticks)
Tried aggregator 2 times.
MIP Presolve eliminated 182 rows and 2745 columns.
MIP Presolve modified 5862 coefficients.
Aggregator did 713 substitutions.
Reduced MIP has 3624 rows, 7744 columns, and 28666 nonzeros.
Reduced MIP has 7744 binaries, 0 generals, 0 SOSs, and 0 indicators.
Presolve time = 0.07 sec. (68.82 ticks)
Probing time = 0.03 sec. (5.30 ticks)
Tried aggregator 1 time.
Detecting symmetries...
Reduced MIP has 3624 rows, 7744 columns, and 28666 nonzeros.
Reduced MIP has 7744 binaries, 0 generals, 0 SOSs, and 0 indicators.
Presolve time = 0.02 sec. (21.95 ticks)
Probing time = 0.02 sec. (5.09 ticks)
Clique table members: 18557.
MIP emphasis: balance optimality and feasibility.
MIP search method: dynamic search.
Parallel mode: opportunistic, using up to 40 threads.
Root relaxation solution time = 0.20 sec. (182.46 ticks)

        Nodes                                         Cuts/
   Node  Left     Objective  IInf  Best Integer    Best Bound    ItCnt     Gap

*     0+    0                            0.0000  -1.31000e+13              --- 
*     0+    0                      -6.49000e+12  -1.31000e+13           101.85%
*     0+    0                      -7.59000e+12  -1.31000e+13            72.60%
*     0+    0                      -8.69000e+12  -1.31000e+13            50.75%
*     0+    0                      -8.80000e+12  -1.31000e+13            48.86%
*     0+    0                      -9.90000e+12  -1.31000e+13            32.32%
*     0+    0                      -1.10000e+13  -1.31000e+13            19.09%
*     0+    0                      -1.21000e+13  -1.31000e+13             8.26%
*     0+    0                      -1.30900e+13  -1.31000e+13             0.08%
      0     0  -1.30900e+13    87  -1.30900e+13  -1.30900e+13     3354    0.00%
*     0+    0                      -1.30900e+13  -1.30900e+13             0.00%
      0     0  -1.30900e+13   151  -1.30900e+13      Cuts: 87     4408    0.00%
      0     0  -1.30900e+13   176  -1.30900e+13      Cuts: 57     5273    0.00%
*     0+    0                      -1.30900e+13  -1.30900e+13             0.00%
*     0+    0                      -1.30900e+13  -1.30900e+13             0.00%
*     0+    0                      -1.30900e+13  -1.30900e+13             0.00%
*     0+    0                      -1.30900e+13  -1.30900e+13             0.00%
      0    15        cutoff        -1.30900e+13  -1.30900e+13    11554    0.00%
Elapsed time = 3.00 sec. (1710.57 ticks, tree = 0.02 MB, solutions = 15)
    154    13  -1.30900e+13   154  -1.30900e+13  -1.30900e+13    27584    0.00%
    237    13  -1.30900e+13   214  -1.30900e+13  -1.30900e+13    25721    0.00%
    286    64  -1.30900e+13   110  -1.30900e+13  -1.30900e+13   118566    0.00%
    378    67  -1.30900e+13   100  -1.30900e+13  -1.30900e+13   171389    0.00%
    518    63  -1.30900e+13   220  -1.30900e+13  -1.30900e+13   121909    0.00%
    657    70  -1.30900e+13   170  -1.30900e+13  -1.30900e+13   191677    0.00%
    841    58  -1.30900e+13   169  -1.30900e+13  -1.30900e+13   372413    0.00%
   1100    67  -1.30900e+13   118  -1.30900e+13  -1.30900e+13   161900    0.00%
   1388    77  -1.30900e+13   107  -1.30900e+13  -1.30900e+13   171553    0.00%
*  1735    60      integral     0  -1.30900e+13  -1.30900e+13   674034    0.00%
*  1791    46      integral     0  -1.30900e+13  -1.30900e+13   712189    0.00%
   2916    34  -1.30900e+13   202  -1.30900e+13  -1.30900e+13   608739    0.00%
Elapsed time = 12.33 sec. (4833.10 ticks, tree = 0.06 MB, solutions = 33)
   4630    33        cutoff        -1.30900e+13  -1.30900e+13   694118    0.00%
   6824    65  -1.30900e+13    38  -1.30900e+13  -1.30900e+13   672851    0.00%
   8890    91        cutoff        -1.30900e+13  -1.30900e+13   719755    0.00%
   9709    20  -1.30900e+13    98  -1.30900e+13  -1.30900e+13  1029963    0.00%

GUB cover cuts applied:  3
Clique cuts applied:  13
Cover cuts applied:  750
Flow cuts applied:  6
Mixed integer rounding cuts applied:  11
Zero-half cuts applied:  5
Lift and project cuts applied:  6
Gomory fractional cuts applied:  22

Root node processing (before b&c):
  Real time             =    1.98 sec. (1703.63 ticks)
Parallel b&c, 40 threads:
  Real time             =   12.70 sec. (7164.88 ticks)
  Sync time (average)   =    5.38 sec.
  Wait time (average)   =    0.00 sec.
                          ------------
Total (root+branch&cut) =   14.68 sec. (8868.51 ticks)

Solution pool: 33 solutions saved.

MIP - Integer optimal solution:  Objective = -1.3089998890e+13
Solution time =   14.82 sec.  Iterations = 1055988  Nodes = 9716
Deterministic time = 8868.54 ticks  (598.46 ticks/sec)

CPLEX> Solution 'p34' written to file 'ee.sol'.
CPLEX> 